<?xml version = "1.0" encoding="UTF-8" standalone="yes"?>
<CPLEXSolution version="1.2">
 <header
   problemName="IloCplex"
   solutionName="incumbent"
   solutionIndex="-1"
   objectiveValue="57388000"
   solutionTypeValue="3"
   solutionTypeString="primal"
   solutionStatusValue="101"
   solutionStatusString="integer optimal solution"
   solutionMethodString="mip"
   primalFeasible="1"
   dualFeasible="1"
   MIPNodes="0"
   MIPIterations="155"
   writeLevel="1"/>
 <quality
   epInt="1e-05"
   epRHS="1e-06"
   maxIntInfeas="9.32777766138315e-09"
   maxPrimalInfeas="7.27595761418343e-12"
   maxX="71466666.6666667"
   maxSlack="20000.0000000011"/>
 <linearConstraints>
  <constraint index="0" slack="1.00000000000005"/>
  <constraint index="1" slack="0"/>
  <constraint index="2" slack="0"/>
  <constraint index="3" slack="0"/>
  <constraint index="4" slack="0"/>
  <constraint index="5" slack="0"/>
  <constraint index="6" slack="0"/>
  <constraint index="7" slack="0"/>
  <constraint index="8" slack="0"/>
  <constraint index="9" slack="0"/>
  <constraint index="10" slack="0"/>
  <constraint index="11" slack="0"/>
  <constraint index="12" slack="0"/>
  <constraint index="13" slack="13999.9999999965"/>
  <constraint index="14" slack="0"/>
  <constraint index="15" slack="0"/>
  <constraint index="16" slack="3.63797880709171e-12"/>
  <constraint index="17" slack="0"/>
  <constraint index="18" slack="0"/>
  <constraint index="19" slack="3.63797880709171e-12"/>
  <constraint index="20" slack="0"/>
  <constraint index="21" slack="0"/>
  <constraint index="22" slack="20000.0000000011"/>
  <constraint index="23" slack="0"/>
  <constraint index="24" slack="7999.99999999774"/>
  <constraint index="25" slack="20000.0000000011"/>
  <constraint index="26" slack="0"/>
  <constraint index="27" slack="17999.9999999977"/>
  <constraint index="28" slack="17999.9999999988"/>
  <constraint index="29" slack="0"/>
  <constraint index="30" slack="0"/>
  <constraint index="31" slack="7999.99999999882"/>
  <constraint index="32" slack="0"/>
  <constraint index="33" slack="0"/>
  <constraint index="34" slack="7999.99999999882"/>
  <constraint index="35" slack="0"/>
  <constraint index="36" slack="0"/>
  <constraint index="37" slack="17999.9999999988"/>
  <constraint index="38" slack="0"/>
  <constraint index="39" slack="0"/>
  <constraint index="40" slack="20000.0000000011"/>
  <constraint index="41" slack="0"/>
  <constraint index="42" slack="2999.99999999774"/>
  <constraint index="43" slack="12999.9999999988"/>
  <constraint index="44" slack="0"/>
  <constraint index="45" slack="0"/>
  <constraint index="46" slack="7999.99999999882"/>
  <constraint index="47" slack="0"/>
  <constraint index="48" slack="0"/>
  <constraint index="49" slack="0"/>
  <constraint index="50" slack="0"/>
  <constraint index="51" slack="0"/>
  <constraint index="52" slack="0"/>
  <constraint index="53" slack="0"/>
  <constraint index="54" slack="0"/>
  <constraint index="55" slack="0"/>
  <constraint index="56" slack="0"/>
  <constraint index="57" slack="0"/>
  <constraint index="58" slack="0"/>
  <constraint index="59" slack="0"/>
  <constraint index="60" slack="0"/>
  <constraint index="61" slack="0"/>
  <constraint index="62" slack="0"/>
  <constraint index="63" slack="0"/>
  <constraint index="64" slack="0"/>
  <constraint index="65" slack="0"/>
  <constraint index="66" slack="0"/>
  <constraint index="67" slack="0"/>
  <constraint index="68" slack="0"/>
  <constraint index="69" slack="0"/>
  <constraint index="70" slack="0"/>
  <constraint index="71" slack="0"/>
  <constraint index="72" slack="0"/>
  <constraint index="73" slack="0"/>
  <constraint index="74" slack="0"/>
  <constraint index="75" slack="0"/>
  <constraint index="76" slack="0"/>
  <constraint index="77" slack="0"/>
  <constraint index="78" slack="0"/>
  <constraint index="79" slack="0"/>
  <constraint index="80" slack="0"/>
  <constraint index="81" slack="0"/>
  <constraint index="82" slack="0"/>
  <constraint index="83" slack="0"/>
  <constraint index="84" slack="0"/>
  <constraint index="85" slack="0"/>
  <constraint index="86" slack="0"/>
  <constraint index="87" slack="0"/>
  <constraint index="88" slack="0"/>
  <constraint index="89" slack="0"/>
  <constraint index="90" slack="0"/>
  <constraint index="91" slack="0"/>
  <constraint index="92" slack="0"/>
  <constraint index="93" slack="0"/>
  <constraint index="94" slack="0"/>
  <constraint index="95" slack="0"/>
  <constraint index="96" slack="0"/>
  <constraint index="97" slack="3999.99999999647"/>
  <constraint index="98" slack="0"/>
  <constraint index="99" slack="0"/>
  <constraint index="100" slack="3.63797880709171e-12"/>
  <constraint index="101" slack="0"/>
  <constraint index="102" slack="0"/>
  <constraint index="103" slack="3.63797880709171e-12"/>
  <constraint index="104" slack="0"/>
  <constraint index="105" slack="0"/>
  <constraint index="106" slack="17999.9999999988"/>
  <constraint index="107" slack="0"/>
  <constraint index="108" slack="0"/>
  <constraint index="109" slack="12999.9999999988"/>
  <constraint index="110" slack="0"/>
  <constraint index="111" slack="0"/>
  <constraint index="112" slack="20000.0000000006"/>
  <constraint index="113" slack="0"/>
  <constraint index="114" slack="2999.99999999818"/>
  <constraint index="115" slack="5999.99999999765"/>
  <constraint index="116" slack="0"/>
  <constraint index="117" slack="0"/>
  <constraint index="118" slack="3.63797880709171e-12"/>
  <constraint index="119" slack="0"/>
  <constraint index="120" slack="0"/>
  <constraint index="121" slack="12999.9999999988"/>
  <constraint index="122" slack="0"/>
  <constraint index="123" slack="0"/>
  <constraint index="124" slack="20000.0000000011"/>
  <constraint index="125" slack="0"/>
  <constraint index="126" slack="2999.99999999774"/>
  <constraint index="127" slack="12999.9999999988"/>
  <constraint index="128" slack="0"/>
  <constraint index="129" slack="0"/>
  <constraint index="130" slack="7999.99999999882"/>
  <constraint index="131" slack="0"/>
  <constraint index="132" slack="0"/>
  <constraint index="133" slack="0"/>
  <constraint index="134" slack="0"/>
  <constraint index="135" slack="0"/>
  <constraint index="136" slack="0"/>
  <constraint index="137" slack="0"/>
  <constraint index="138" slack="0"/>
  <constraint index="139" slack="0"/>
  <constraint index="140" slack="0"/>
  <constraint index="141" slack="0"/>
  <constraint index="142" slack="0"/>
  <constraint index="143" slack="0"/>
  <constraint index="144" slack="0"/>
  <constraint index="145" slack="0"/>
  <constraint index="146" slack="0"/>
  <constraint index="147" slack="0"/>
  <constraint index="148" slack="0"/>
  <constraint index="149" slack="0"/>
  <constraint index="150" slack="0"/>
  <constraint index="151" slack="0"/>
  <constraint index="152" slack="0"/>
  <constraint index="153" slack="0"/>
  <constraint index="154" slack="0"/>
  <constraint index="155" slack="0"/>
  <constraint index="156" slack="0"/>
  <constraint index="157" slack="0"/>
  <constraint index="158" slack="0"/>
  <constraint index="159" slack="0"/>
  <constraint index="160" slack="0"/>
  <constraint index="161" slack="0"/>
  <constraint index="162" slack="0"/>
  <constraint index="163" slack="0"/>
  <constraint index="164" slack="0"/>
  <constraint index="165" slack="0"/>
  <constraint index="166" slack="0"/>
  <constraint index="167" slack="0"/>
  <constraint index="168" slack="0"/>
  <constraint index="169" slack="-7.27595761418343e-12"/>
  <constraint index="170" slack="7.27595761418343e-12"/>
  <constraint index="171" slack="7.27595761418343e-12"/>
  <constraint index="172" slack="0"/>
  <constraint index="173" slack="0"/>
  <constraint index="174" slack="0"/>
  <constraint index="175" slack="0"/>
  <constraint index="176" slack="0"/>
  <constraint index="177" slack="0"/>
  <constraint index="178" slack="0"/>
  <constraint index="179" slack="0"/>
  <constraint index="180" slack="0"/>
  <constraint index="181" slack="3999.99999999644"/>
  <constraint index="182" slack="0"/>
  <constraint index="183" slack="0"/>
  <constraint index="184" slack="1.81898940354586e-11"/>
  <constraint index="185" slack="0"/>
  <constraint index="186" slack="0"/>
  <constraint index="187" slack="1.81898940354586e-11"/>
  <constraint index="188" slack="0"/>
  <constraint index="189" slack="0"/>
  <constraint index="190" slack="7999.99999999882"/>
  <constraint index="191" slack="0"/>
  <constraint index="192" slack="0"/>
  <constraint index="193" slack="12999.9999999988"/>
  <constraint index="194" slack="0"/>
  <constraint index="195" slack="0"/>
  <constraint index="196" slack="15999.9999999918"/>
  <constraint index="197" slack="0"/>
  <constraint index="198" slack="0"/>
  <constraint index="199" slack="3.63797880709171e-12"/>
  <constraint index="200" slack="0"/>
  <constraint index="201" slack="0"/>
  <constraint index="202" slack="3.63797880709171e-12"/>
  <constraint index="203" slack="0"/>
  <constraint index="204" slack="0"/>
  <constraint index="205" slack="3.63797880709171e-12"/>
  <constraint index="206" slack="0"/>
  <constraint index="207" slack="0"/>
  <constraint index="208" slack="3.63797880709171e-12"/>
  <constraint index="209" slack="0"/>
  <constraint index="210" slack="0"/>
  <constraint index="211" slack="3.63797880709171e-12"/>
  <constraint index="212" slack="0"/>
  <constraint index="213" slack="0"/>
  <constraint index="214" slack="3.63797880709171e-12"/>
  <constraint index="215" slack="0"/>
  <constraint index="216" slack="0"/>
  <constraint index="217" slack="0"/>
  <constraint index="218" slack="0"/>
  <constraint index="219" slack="0"/>
  <constraint index="220" slack="0"/>
  <constraint index="221" slack="0"/>
  <constraint index="222" slack="0"/>
  <constraint index="223" slack="0"/>
  <constraint index="224" slack="0"/>
  <constraint index="225" slack="0"/>
  <constraint index="226" slack="0"/>
  <constraint index="227" slack="0"/>
  <constraint index="228" slack="0"/>
  <constraint index="229" slack="0"/>
  <constraint index="230" slack="0"/>
  <constraint index="231" slack="0"/>
  <constraint index="232" slack="0"/>
  <constraint index="233" slack="0"/>
  <constraint index="234" slack="0"/>
  <constraint index="235" slack="0"/>
  <constraint index="236" slack="0"/>
  <constraint index="237" slack="0"/>
  <constraint index="238" slack="0"/>
  <constraint index="239" slack="0"/>
  <constraint index="240" slack="0"/>
  <constraint index="241" slack="0"/>
  <constraint index="242" slack="-7.27595761418343e-12"/>
  <constraint index="243" slack="0"/>
  <constraint index="244" slack="0"/>
  <constraint index="245" slack="0"/>
  <constraint index="246" slack="0"/>
  <constraint index="247" slack="0"/>
  <constraint index="248" slack="0"/>
  <constraint index="249" slack="0"/>
  <constraint index="250" slack="0"/>
  <constraint index="251" slack="0"/>
  <constraint index="252" slack="0"/>
 </linearConstraints>
 <variables>
  <variable name="Z[investiment=0 ; machine=0]" index="0" value="1"/>
  <variable name="Z[investiment=0 ; machine=1]" index="1" value="1"/>
  <variable name="Z[investiment=0 ; machine=2]" index="2" value="1.07913677993565e-13"/>
  <variable name="Z[investiment=0 ; machine=3]" index="3" value="0"/>
  <variable name="Z[investiment=0 ; machine=4]" index="4" value="0"/>
  <variable name="Z[investiment=0 ; machine=5]" index="5" value="0"/>
  <variable name="Z[investiment=0 ; machine=6]" index="6" value="0"/>
  <variable name="Z[investiment=0 ; machine=7]" index="7" value="0"/>
  <variable name="Z[investiment=0 ; machine=8]" index="8" value="0"/>
  <variable name="Z[investiment=0 ; machine=9]" index="9" value="0"/>
  <variable name="Z[investiment=1 ; machine=0]" index="10" value="-0"/>
  <variable name="Z[investiment=1 ; machine=1]" index="11" value="0"/>
  <variable name="Z[investiment=1 ; machine=2]" index="12" value="0"/>
  <variable name="Z[investiment=1 ; machine=3]" index="13" value="0"/>
  <variable name="Z[investiment=1 ; machine=4]" index="14" value="0"/>
  <variable name="Z[investiment=1 ; machine=5]" index="15" value="0"/>
  <variable name="Z[investiment=1 ; machine=6]" index="16" value="0"/>
  <variable name="Z[investiment=1 ; machine=7]" index="17" value="0"/>
  <variable name="Z[investiment=1 ; machine=8]" index="18" value="0"/>
  <variable name="Z[investiment=1 ; machine=9]" index="19" value="0"/>
  <variable name="Z[investiment=2 ; machine=0]" index="20" value="1"/>
  <variable name="Z[investiment=2 ; machine=1]" index="21" value="1"/>
  <variable name="Z[investiment=2 ; machine=2]" index="22" value="1"/>
  <variable name="Z[investiment=2 ; machine=3]" index="23" value="1"/>
  <variable name="Z[investiment=2 ; machine=4]" index="24" value="1"/>
  <variable name="Z[investiment=2 ; machine=5]" index="25" value="1"/>
  <variable name="Z[investiment=2 ; machine=6]" index="26" value="0.999999999999839"/>
  <variable name="Z[investiment=2 ; machine=7]" index="27" value="0"/>
  <variable name="Z[investiment=2 ; machine=8]" index="28" value="0"/>
  <variable name="Z[investiment=2 ; machine=9]" index="29" value="0"/>
  <variable name="L[periode=1 ; scenary=0]" index="30" value="13999.9999999965"/>
  <variable name="X[product=0 ; periode=1 ; scenary=0]" index="31" value="54000.0000000024"/>
  <variable name="X[product=1 ; periode=1 ; scenary=0]" index="32" value="50000"/>
  <variable name="L[periode=2 ; scenary=0]" index="33" value="-0"/>
  <variable name="X[product=0 ; periode=2 ; scenary=0]" index="34" value="67999.9999999988"/>
  <variable name="X[product=1 ; periode=2 ; scenary=0]" index="35" value="50000"/>
  <variable name="L[periode=3 ; scenary=0]" index="36" value="-0"/>
  <variable name="X[product=0 ; periode=3 ; scenary=0]" index="37" value="47999.9999999988"/>
  <variable name="X[product=1 ; periode=3 ; scenary=0]" index="38" value="70000"/>
  <variable name="L[periode=4 ; scenary=0]" index="39" value="27999.9999999988"/>
  <variable name="X[product=0 ; periode=4 ; scenary=0]" index="40" value="40000"/>
  <variable name="X[product=1 ; periode=4 ; scenary=0]" index="41" value="50000"/>
  <variable name="L[periode=5 ; scenary=0]" index="42" value="37999.9999999988"/>
  <variable name="X[product=0 ; periode=5 ; scenary=0]" index="43" value="40000"/>
  <variable name="X[product=1 ; periode=5 ; scenary=0]" index="44" value="40000"/>
  <variable name="L[periode=6 ; scenary=0]" index="45" value="17999.9999999988"/>
  <variable name="X[product=0 ; periode=6 ; scenary=0]" index="46" value="50000"/>
  <variable name="X[product=1 ; periode=6 ; scenary=0]" index="47" value="50000"/>
  <variable name="L[periode=7 ; scenary=0]" index="48" value="7999.99999999882"/>
  <variable name="X[product=0 ; periode=7 ; scenary=0]" index="49" value="60000"/>
  <variable name="X[product=1 ; periode=7 ; scenary=0]" index="50" value="50000"/>
  <variable name="L[periode=8 ; scenary=0]" index="51" value="7999.99999999882"/>
  <variable name="X[product=0 ; periode=8 ; scenary=0]" index="52" value="50000"/>
  <variable name="X[product=1 ; periode=8 ; scenary=0]" index="53" value="60000"/>
  <variable name="L[periode=9 ; scenary=0]" index="54" value="17999.9999999988"/>
  <variable name="X[product=0 ; periode=9 ; scenary=0]" index="55" value="50000"/>
  <variable name="X[product=1 ; periode=9 ; scenary=0]" index="56" value="50000"/>
  <variable name="L[periode=10 ; scenary=0]" index="57" value="22999.9999999988"/>
  <variable name="X[product=0 ; periode=10 ; scenary=0]" index="58" value="60000"/>
  <variable name="X[product=1 ; periode=10 ; scenary=0]" index="59" value="35000"/>
  <variable name="L[periode=11 ; scenary=0]" index="60" value="12999.9999999988"/>
  <variable name="X[product=0 ; periode=11 ; scenary=0]" index="61" value="60000"/>
  <variable name="X[product=1 ; periode=11 ; scenary=0]" index="62" value="45000"/>
  <variable name="L[periode=12 ; scenary=0]" index="63" value="7999.99999999882"/>
  <variable name="X[product=0 ; periode=12 ; scenary=0]" index="64" value="50000"/>
  <variable name="X[product=1 ; periode=12 ; scenary=0]" index="65" value="60000"/>
  <variable name="R[investiment=0 ; periode=1 ;scenary=0]" index="66" value="6000.00000000461"/>
  <variable name="R[investiment=1 ; periode=1 ;scenary=0]" index="67" value="0"/>
  <variable name="R[investiment=2 ; periode=1 ;scenary=0]" index="68" value="97999.9999999977"/>
  <variable name="R[investiment=0 ; periode=2 ;scenary=0]" index="69" value="20000.0000000011"/>
  <variable name="R[investiment=1 ; periode=2 ;scenary=0]" index="70" value="0"/>
  <variable name="R[investiment=2 ; periode=2 ;scenary=0]" index="71" value="97999.9999999977"/>
  <variable name="R[investiment=0 ; periode=3 ;scenary=0]" index="72" value="20000.0000000011"/>
  <variable name="R[investiment=1 ; periode=3 ;scenary=0]" index="73" value="0"/>
  <variable name="R[investiment=2 ; periode=3 ;scenary=0]" index="74" value="97999.9999999977"/>
  <variable name="R[investiment=0 ; periode=4 ;scenary=0]" index="75" value="-0"/>
  <variable name="R[investiment=1 ; periode=4 ;scenary=0]" index="76" value="-0"/>
  <variable name="R[investiment=2 ; periode=4 ;scenary=0]" index="77" value="90000"/>
  <variable name="R[investiment=0 ; periode=5 ;scenary=0]" index="78" value="-0"/>
  <variable name="R[investiment=1 ; periode=5 ;scenary=0]" index="79" value="-0"/>
  <variable name="R[investiment=2 ; periode=5 ;scenary=0]" index="80" value="80000"/>
  <variable name="R[investiment=0 ; periode=6 ;scenary=0]" index="81" value="2000.00000000226"/>
  <variable name="R[investiment=1 ; periode=6 ;scenary=0]" index="82" value="0"/>
  <variable name="R[investiment=2 ; periode=6 ;scenary=0]" index="83" value="97999.9999999977"/>
  <variable name="R[investiment=0 ; periode=7 ;scenary=0]" index="84" value="12000.0000000023"/>
  <variable name="R[investiment=1 ; periode=7 ;scenary=0]" index="85" value="0"/>
  <variable name="R[investiment=2 ; periode=7 ;scenary=0]" index="86" value="97999.9999999977"/>
  <variable name="R[investiment=0 ; periode=8 ;scenary=0]" index="87" value="12000.0000000023"/>
  <variable name="R[investiment=1 ; periode=8 ;scenary=0]" index="88" value="0"/>
  <variable name="R[investiment=2 ; periode=8 ;scenary=0]" index="89" value="97999.9999999977"/>
  <variable name="R[investiment=0 ; periode=9 ;scenary=0]" index="90" value="2000.00000000226"/>
  <variable name="R[investiment=1 ; periode=9 ;scenary=0]" index="91" value="0"/>
  <variable name="R[investiment=2 ; periode=9 ;scenary=0]" index="92" value="97999.9999999977"/>
  <variable name="R[investiment=0 ; periode=10 ;scenary=0]" index="93" value="-0"/>
  <variable name="R[investiment=1 ; periode=10 ;scenary=0]" index="94" value="-0"/>
  <variable name="R[investiment=2 ; periode=10 ;scenary=0]" index="95" value="95000"/>
  <variable name="R[investiment=0 ; periode=11 ;scenary=0]" index="96" value="7000.00000000226"/>
  <variable name="R[investiment=1 ; periode=11 ;scenary=0]" index="97" value="0"/>
  <variable name="R[investiment=2 ; periode=11 ;scenary=0]" index="98" value="97999.9999999977"/>
  <variable name="R[investiment=0 ; periode=12 ;scenary=0]" index="99" value="12000.0000000023"/>
  <variable name="R[investiment=1 ; periode=12 ;scenary=0]" index="100" value="0"/>
  <variable name="R[investiment=2 ; periode=12 ;scenary=0]" index="101" value="97999.9999999977"/>
  <variable name="Y[product=0 ; periode=0; scenary=0]" index="102" value="-0"/>
  <variable name="Y[product=0 ; periode=1; scenary=0]" index="103" value="4000.00000000236"/>
  <variable name="Y[product=0 ; periode=2; scenary=0]" index="104" value="12000.0000000012"/>
  <variable name="Y[product=0 ; periode=3; scenary=0]" index="105" value="-0"/>
  <variable name="Y[product=0 ; periode=4; scenary=0]" index="106" value="-0"/>
  <variable name="Y[product=0 ; periode=5; scenary=0]" index="107" value="-0"/>
  <variable name="Y[product=0 ; periode=6; scenary=0]" index="108" value="-0"/>
  <variable name="Y[product=0 ; periode=7; scenary=0]" index="109" value="-0"/>
  <variable name="Y[product=0 ; periode=8; scenary=0]" index="110" value="-0"/>
  <variable name="Y[product=0 ; periode=9; scenary=0]" index="111" value="-0"/>
  <variable name="Y[product=0 ; periode=10; scenary=0]" index="112" value="-0"/>
  <variable name="Y[product=0 ; periode=11; scenary=0]" index="113" value="-0"/>
  <variable name="Y[product=0 ; periode=12; scenary=0]" index="114" value="-0"/>
  <variable name="Y[product=1 ; periode=0; scenary=0]" index="115" value="-0"/>
  <variable name="Y[product=1 ; periode=1; scenary=0]" index="116" value="-0"/>
  <variable name="Y[product=1 ; periode=2; scenary=0]" index="117" value="-0"/>
  <variable name="Y[product=1 ; periode=3; scenary=0]" index="118" value="-0"/>
  <variable name="Y[product=1 ; periode=4; scenary=0]" index="119" value="-0"/>
  <variable name="Y[product=1 ; periode=5; scenary=0]" index="120" value="-0"/>
  <variable name="Y[product=1 ; periode=6; scenary=0]" index="121" value="-0"/>
  <variable name="Y[product=1 ; periode=7; scenary=0]" index="122" value="-0"/>
  <variable name="Y[product=1 ; periode=8; scenary=0]" index="123" value="-0"/>
  <variable name="Y[product=1 ; periode=9; scenary=0]" index="124" value="-0"/>
  <variable name="Y[product=1 ; periode=10; scenary=0]" index="125" value="-0"/>
  <variable name="Y[product=1 ; periode=11; scenary=0]" index="126" value="-0"/>
  <variable name="Y[product=1 ; periode=12; scenary=0]" index="127" value="-0"/>
  <variable name="L[periode=1 ; scenary=1]" index="128" value="3999.99999999646"/>
  <variable name="X[product=0 ; periode=1 ; scenary=1]" index="129" value="64000.0000000024"/>
  <variable name="X[product=1 ; periode=1 ; scenary=1]" index="130" value="50000"/>
  <variable name="L[periode=2 ; scenary=1]" index="131" value="-0"/>
  <variable name="X[product=0 ; periode=2 ; scenary=1]" index="132" value="55999.9999999976"/>
  <variable name="X[product=1 ; periode=2 ; scenary=1]" index="133" value="62000.0000000012"/>
  <variable name="L[periode=3 ; scenary=1]" index="134" value="-0"/>
  <variable name="X[product=0 ; periode=3 ; scenary=1]" index="135" value="60000"/>
  <variable name="X[product=1 ; periode=3 ; scenary=1]" index="136" value="57999.9999999988"/>
  <variable name="L[periode=4 ; scenary=1]" index="137" value="17999.9999999988"/>
  <variable name="X[product=0 ; periode=4 ; scenary=1]" index="138" value="50000"/>
  <variable name="X[product=1 ; periode=4 ; scenary=1]" index="139" value="50000"/>
  <variable name="L[periode=5 ; scenary=1]" index="140" value="12999.9999999988"/>
  <variable name="X[product=0 ; periode=5 ; scenary=1]" index="141" value="65000"/>
  <variable name="X[product=1 ; periode=5 ; scenary=1]" index="142" value="40000"/>
  <variable name="L[periode=6 ; scenary=1]" index="143" value="22999.9999999988"/>
  <variable name="X[product=0 ; periode=6 ; scenary=1]" index="144" value="45000"/>
  <variable name="X[product=1 ; periode=6 ; scenary=1]" index="145" value="50000"/>
  <variable name="L[periode=7 ; scenary=1]" index="146" value="5999.99999999764"/>
  <variable name="X[product=0 ; periode=7 ; scenary=1]" index="147" value="60000"/>
  <variable name="X[product=1 ; periode=7 ; scenary=1]" index="148" value="52000.0000000012"/>
  <variable name="L[periode=8 ; scenary=1]" index="149" value="-0"/>
  <variable name="X[product=0 ; periode=8 ; scenary=1]" index="150" value="60000"/>
  <variable name="X[product=1 ; periode=8 ; scenary=1]" index="151" value="57999.9999999988"/>
  <variable name="L[periode=9 ; scenary=1]" index="152" value="12999.9999999988"/>
  <variable name="X[product=0 ; periode=9 ; scenary=1]" index="153" value="55000"/>
  <variable name="X[product=1 ; periode=9 ; scenary=1]" index="154" value="50000"/>
  <variable name="L[periode=10 ; scenary=1]" index="155" value="22999.9999999988"/>
  <variable name="X[product=0 ; periode=10 ; scenary=1]" index="156" value="60000"/>
  <variable name="X[product=1 ; periode=10 ; scenary=1]" index="157" value="35000"/>
  <variable name="L[periode=11 ; scenary=1]" index="158" value="12999.9999999988"/>
  <variable name="X[product=0 ; periode=11 ; scenary=1]" index="159" value="60000"/>
  <variable name="X[product=1 ; periode=11 ; scenary=1]" index="160" value="45000"/>
  <variable name="L[periode=12 ; scenary=1]" index="161" value="7999.99999999882"/>
  <variable name="X[product=0 ; periode=12 ; scenary=1]" index="162" value="50000"/>
  <variable name="X[product=1 ; periode=12 ; scenary=1]" index="163" value="60000"/>
  <variable name="R[investiment=0 ; periode=1 ;scenary=1]" index="164" value="16000.0000000046"/>
  <variable name="R[investiment=1 ; periode=1 ;scenary=1]" index="165" value="0"/>
  <variable name="R[investiment=2 ; periode=1 ;scenary=1]" index="166" value="97999.9999999977"/>
  <variable name="R[investiment=0 ; periode=2 ;scenary=1]" index="167" value="20000.0000000011"/>
  <variable name="R[investiment=1 ; periode=2 ;scenary=1]" index="168" value="0"/>
  <variable name="R[investiment=2 ; periode=2 ;scenary=1]" index="169" value="97999.9999999977"/>
  <variable name="R[investiment=0 ; periode=3 ;scenary=1]" index="170" value="20000.0000000011"/>
  <variable name="R[investiment=1 ; periode=3 ;scenary=1]" index="171" value="0"/>
  <variable name="R[investiment=2 ; periode=3 ;scenary=1]" index="172" value="97999.9999999977"/>
  <variable name="R[investiment=0 ; periode=4 ;scenary=1]" index="173" value="2000.00000000226"/>
  <variable name="R[investiment=1 ; periode=4 ;scenary=1]" index="174" value="0"/>
  <variable name="R[investiment=2 ; periode=4 ;scenary=1]" index="175" value="97999.9999999977"/>
  <variable name="R[investiment=0 ; periode=5 ;scenary=1]" index="176" value="7000.00000000226"/>
  <variable name="R[investiment=1 ; periode=5 ;scenary=1]" index="177" value="0"/>
  <variable name="R[investiment=2 ; periode=5 ;scenary=1]" index="178" value="97999.9999999977"/>
  <variable name="R[investiment=0 ; periode=6 ;scenary=1]" index="179" value="4.36557456851006e-10"/>
  <variable name="R[investiment=1 ; periode=6 ;scenary=1]" index="180" value="0"/>
  <variable name="R[investiment=2 ; periode=6 ;scenary=1]" index="181" value="94999.9999999996"/>
  <variable name="R[investiment=0 ; periode=7 ;scenary=1]" index="182" value="14000.0000000034"/>
  <variable name="R[investiment=1 ; periode=7 ;scenary=1]" index="183" value="0"/>
  <variable name="R[investiment=2 ; periode=7 ;scenary=1]" index="184" value="97999.9999999977"/>
  <variable name="R[investiment=0 ; periode=8 ;scenary=1]" index="185" value="20000.0000000011"/>
  <variable name="R[investiment=1 ; periode=8 ;scenary=1]" index="186" value="0"/>
  <variable name="R[investiment=2 ; periode=8 ;scenary=1]" index="187" value="97999.9999999977"/>
  <variable name="R[investiment=0 ; periode=9 ;scenary=1]" index="188" value="7000.00000000226"/>
  <variable name="R[investiment=1 ; periode=9 ;scenary=1]" index="189" value="0"/>
  <variable name="R[investiment=2 ; periode=9 ;scenary=1]" index="190" value="97999.9999999977"/>
  <variable name="R[investiment=0 ; periode=10 ;scenary=1]" index="191" value="-0"/>
  <variable name="R[investiment=1 ; periode=10 ;scenary=1]" index="192" value="-0"/>
  <variable name="R[investiment=2 ; periode=10 ;scenary=1]" index="193" value="95000"/>
  <variable name="R[investiment=0 ; periode=11 ;scenary=1]" index="194" value="7000.00000000226"/>
  <variable name="R[investiment=1 ; periode=11 ;scenary=1]" index="195" value="0"/>
  <variable name="R[investiment=2 ; periode=11 ;scenary=1]" index="196" value="97999.9999999977"/>
  <variable name="R[investiment=0 ; periode=12 ;scenary=1]" index="197" value="12000.0000000023"/>
  <variable name="R[investiment=1 ; periode=12 ;scenary=1]" index="198" value="0"/>
  <variable name="R[investiment=2 ; periode=12 ;scenary=1]" index="199" value="97999.9999999977"/>
  <variable name="Y[product=0 ; periode=1; scenary=1]" index="200" value="4000.00000000236"/>
  <variable name="Y[product=0 ; periode=2; scenary=1]" index="201" value="-0"/>
  <variable name="Y[product=0 ; periode=3; scenary=1]" index="202" value="-0"/>
  <variable name="Y[product=0 ; periode=4; scenary=1]" index="203" value="-0"/>
  <variable name="Y[product=0 ; periode=5; scenary=1]" index="204" value="-0"/>
  <variable name="Y[product=0 ; periode=6; scenary=1]" index="205" value="-0"/>
  <variable name="Y[product=0 ; periode=7; scenary=1]" index="206" value="-0"/>
  <variable name="Y[product=0 ; periode=8; scenary=1]" index="207" value="-0"/>
  <variable name="Y[product=0 ; periode=9; scenary=1]" index="208" value="-0"/>
  <variable name="Y[product=0 ; periode=10; scenary=1]" index="209" value="-0"/>
  <variable name="Y[product=0 ; periode=11; scenary=1]" index="210" value="-0"/>
  <variable name="Y[product=0 ; periode=12; scenary=1]" index="211" value="-0"/>
  <variable name="Y[product=1 ; periode=1; scenary=1]" index="212" value="-0"/>
  <variable name="Y[product=1 ; periode=2; scenary=1]" index="213" value="12000.0000000012"/>
  <variable name="Y[product=1 ; periode=3; scenary=1]" index="214" value="-0"/>
  <variable name="Y[product=1 ; periode=4; scenary=1]" index="215" value="-0"/>
  <variable name="Y[product=1 ; periode=5; scenary=1]" index="216" value="-0"/>
  <variable name="Y[product=1 ; periode=6; scenary=1]" index="217" value="-0"/>
  <variable name="Y[product=1 ; periode=7; scenary=1]" index="218" value="2000.00000000118"/>
  <variable name="Y[product=1 ; periode=8; scenary=1]" index="219" value="-0"/>
  <variable name="Y[product=1 ; periode=9; scenary=1]" index="220" value="-0"/>
  <variable name="Y[product=1 ; periode=10; scenary=1]" index="221" value="-0"/>
  <variable name="Y[product=1 ; periode=11; scenary=1]" index="222" value="-0"/>
  <variable name="Y[product=1 ; periode=12; scenary=1]" index="223" value="-0"/>
  <variable name="L[periode=1 ; scenary=2]" index="224" value="3999.99999999646"/>
  <variable name="X[product=0 ; periode=1 ; scenary=2]" index="225" value="60000"/>
  <variable name="X[product=1 ; periode=1 ; scenary=2]" index="226" value="54000.0000000024"/>
  <variable name="L[periode=2 ; scenary=2]" index="227" value="-0"/>
  <variable name="X[product=0 ; periode=2 ; scenary=2]" index="228" value="60000"/>
  <variable name="X[product=1 ; periode=2 ; scenary=2]" index="229" value="57999.9999999988"/>
  <variable name="L[periode=3 ; scenary=2]" index="230" value="-0"/>
  <variable name="X[product=0 ; periode=3 ; scenary=2]" index="231" value="60000"/>
  <variable name="X[product=1 ; periode=3 ; scenary=2]" index="232" value="57999.9999999988"/>
  <variable name="L[periode=4 ; scenary=2]" index="233" value="7999.99999999882"/>
  <variable name="X[product=0 ; periode=4 ; scenary=2]" index="234" value="50000"/>
  <variable name="X[product=1 ; periode=4 ; scenary=2]" index="235" value="60000"/>
  <variable name="L[periode=5 ; scenary=2]" index="236" value="12999.9999999988"/>
  <variable name="X[product=0 ; periode=5 ; scenary=2]" index="237" value="65000"/>
  <variable name="X[product=1 ; periode=5 ; scenary=2]" index="238" value="40000"/>
  <variable name="L[periode=6 ; scenary=2]" index="239" value="15999.9999999917"/>
  <variable name="X[product=0 ; periode=6 ; scenary=2]" index="240" value="52000.0000000071"/>
  <variable name="X[product=1 ; periode=6 ; scenary=2]" index="241" value="50000"/>
  <variable name="L[periode=7 ; scenary=2]" index="242" value="-0"/>
  <variable name="X[product=0 ; periode=7 ; scenary=2]" index="243" value="52999.9999999929"/>
  <variable name="X[product=1 ; periode=7 ; scenary=2]" index="244" value="65000.0000000059"/>
  <variable name="L[periode=8 ; scenary=2]" index="245" value="-0"/>
  <variable name="X[product=0 ; periode=8 ; scenary=2]" index="246" value="73000.0000000047"/>
  <variable name="X[product=1 ; periode=8 ; scenary=2]" index="247" value="44999.9999999941"/>
  <variable name="L[periode=9 ; scenary=2]" index="248" value="-0"/>
  <variable name="X[product=0 ; periode=9 ; scenary=2]" index="249" value="67999.9999999988"/>
  <variable name="X[product=1 ; periode=9 ; scenary=2]" index="250" value="50000"/>
  <variable name="L[periode=10 ; scenary=2]" index="251" value="-0"/>
  <variable name="X[product=0 ; periode=10 ; scenary=2]" index="252" value="57999.9999999988"/>
  <variable name="X[product=1 ; periode=10 ; scenary=2]" index="253" value="60000"/>
  <variable name="L[periode=11 ; scenary=2]" index="254" value="-0"/>
  <variable name="X[product=0 ; periode=11 ; scenary=2]" index="255" value="47999.9999999988"/>
  <variable name="X[product=1 ; periode=11 ; scenary=2]" index="256" value="70000"/>
  <variable name="L[periode=12 ; scenary=2]" index="257" value="-0"/>
  <variable name="X[product=0 ; periode=12 ; scenary=2]" index="258" value="57999.9999999988"/>
  <variable name="X[product=1 ; periode=12 ; scenary=2]" index="259" value="60000"/>
  <variable name="R[investiment=0 ; periode=1 ;scenary=2]" index="260" value="16000.0000000046"/>
  <variable name="R[investiment=1 ; periode=1 ;scenary=2]" index="261" value="0"/>
  <variable name="R[investiment=2 ; periode=1 ;scenary=2]" index="262" value="97999.9999999977"/>
  <variable name="R[investiment=0 ; periode=2 ;scenary=2]" index="263" value="20000.0000000011"/>
  <variable name="R[investiment=1 ; periode=2 ;scenary=2]" index="264" value="0"/>
  <variable name="R[investiment=2 ; periode=2 ;scenary=2]" index="265" value="97999.9999999977"/>
  <variable name="R[investiment=0 ; periode=3 ;scenary=2]" index="266" value="20000.0000000011"/>
  <variable name="R[investiment=1 ; periode=3 ;scenary=2]" index="267" value="0"/>
  <variable name="R[investiment=2 ; periode=3 ;scenary=2]" index="268" value="97999.9999999977"/>
  <variable name="R[investiment=0 ; periode=4 ;scenary=2]" index="269" value="12000.0000000023"/>
  <variable name="R[investiment=1 ; periode=4 ;scenary=2]" index="270" value="0"/>
  <variable name="R[investiment=2 ; periode=4 ;scenary=2]" index="271" value="97999.9999999977"/>
  <variable name="R[investiment=0 ; periode=5 ;scenary=2]" index="272" value="7000.00000000226"/>
  <variable name="R[investiment=1 ; periode=5 ;scenary=2]" index="273" value="0"/>
  <variable name="R[investiment=2 ; periode=5 ;scenary=2]" index="274" value="97999.9999999977"/>
  <variable name="R[investiment=0 ; periode=6 ;scenary=2]" index="275" value="4000.00000000933"/>
  <variable name="R[investiment=1 ; periode=6 ;scenary=2]" index="276" value="0"/>
  <variable name="R[investiment=2 ; periode=6 ;scenary=2]" index="277" value="97999.9999999977"/>
  <variable name="R[investiment=0 ; periode=7 ;scenary=2]" index="278" value="20000.0000000011"/>
  <variable name="R[investiment=1 ; periode=7 ;scenary=2]" index="279" value="0"/>
  <variable name="R[investiment=2 ; periode=7 ;scenary=2]" index="280" value="97999.9999999977"/>
  <variable name="R[investiment=0 ; periode=8 ;scenary=2]" index="281" value="20000.0000000011"/>
  <variable name="R[investiment=1 ; periode=8 ;scenary=2]" index="282" value="0"/>
  <variable name="R[investiment=2 ; periode=8 ;scenary=2]" index="283" value="97999.9999999977"/>
  <variable name="R[investiment=0 ; periode=9 ;scenary=2]" index="284" value="20000.0000000011"/>
  <variable name="R[investiment=1 ; periode=9 ;scenary=2]" index="285" value="0"/>
  <variable name="R[investiment=2 ; periode=9 ;scenary=2]" index="286" value="97999.9999999977"/>
  <variable name="R[investiment=0 ; periode=10 ;scenary=2]" index="287" value="20000.0000000011"/>
  <variable name="R[investiment=1 ; periode=10 ;scenary=2]" index="288" value="0"/>
  <variable name="R[investiment=2 ; periode=10 ;scenary=2]" index="289" value="97999.9999999977"/>
  <variable name="R[investiment=0 ; periode=11 ;scenary=2]" index="290" value="20000.0000000011"/>
  <variable name="R[investiment=1 ; periode=11 ;scenary=2]" index="291" value="0"/>
  <variable name="R[investiment=2 ; periode=11 ;scenary=2]" index="292" value="97999.9999999977"/>
  <variable name="R[investiment=0 ; periode=12 ;scenary=2]" index="293" value="20000.0000000011"/>
  <variable name="R[investiment=1 ; periode=12 ;scenary=2]" index="294" value="0"/>
  <variable name="R[investiment=2 ; periode=12 ;scenary=2]" index="295" value="97999.9999999977"/>
  <variable name="Y[product=0 ; periode=1; scenary=2]" index="296" value="-0"/>
  <variable name="Y[product=0 ; periode=2; scenary=2]" index="297" value="-0"/>
  <variable name="Y[product=0 ; periode=3; scenary=2]" index="298" value="-0"/>
  <variable name="Y[product=0 ; periode=4; scenary=2]" index="299" value="-0"/>
  <variable name="Y[product=0 ; periode=5; scenary=2]" index="300" value="-0"/>
  <variable name="Y[product=0 ; periode=6; scenary=2]" index="301" value="7000.00000000707"/>
  <variable name="Y[product=0 ; periode=7; scenary=2]" index="302" value="-0"/>
  <variable name="Y[product=0 ; periode=8; scenary=2]" index="303" value="13000.0000000047"/>
  <variable name="Y[product=0 ; periode=9; scenary=2]" index="304" value="26000.0000000035"/>
  <variable name="Y[product=0 ; periode=10; scenary=2]" index="305" value="24000.0000000024"/>
  <variable name="Y[product=0 ; periode=11; scenary=2]" index="306" value="12000.0000000012"/>
  <variable name="Y[product=0 ; periode=12; scenary=2]" index="307" value="-0"/>
  <variable name="Y[product=1 ; periode=1; scenary=2]" index="308" value="4000.00000000238"/>
  <variable name="Y[product=1 ; periode=2; scenary=2]" index="309" value="12000.0000000012"/>
  <variable name="Y[product=1 ; periode=3; scenary=2]" index="310" value="-0"/>
  <variable name="Y[product=1 ; periode=4; scenary=2]" index="311" value="-0"/>
  <variable name="Y[product=1 ; periode=5; scenary=2]" index="312" value="-0"/>
  <variable name="Y[product=1 ; periode=6; scenary=2]" index="313" value="-0"/>
  <variable name="Y[product=1 ; periode=7; scenary=2]" index="314" value="15000.0000000059"/>
  <variable name="Y[product=1 ; periode=8; scenary=2]" index="315" value="-0"/>
  <variable name="Y[product=1 ; periode=9; scenary=2]" index="316" value="-0"/>
  <variable name="Y[product=1 ; periode=10; scenary=2]" index="317" value="-0"/>
  <variable name="Y[product=1 ; periode=11; scenary=2]" index="318" value="-0"/>
  <variable name="Y[product=1 ; periode=12; scenary=2]" index="319" value="-0"/>
  <variable name="x321" index="320" value="71466666.6666667"/>
 </variables>
</CPLEXSolution>
